19 965
520 7 440 7 284 7 103 9 923 13
521 7 475 7 329 11
525 7 479 7 358 7 163 9 10 11 816 15 659 22
535 8 494 8 321 11
535 8 494 8 321 11
525 7 477 7 391 7 243 9 78 11 921 15
520 7 441 7 296 7 152 12
525 7 445 7 264 7 63 9 889 11 721 18
525 7 445 7 264 7 63 9 889 11 721 18
525 7 479 7 358 7 113 12
525 7 504 7 362 7 209 9 25 11 818 15 619 21
525 7 504 7 362 7 209 9 25 11 818 15 619 21
525 7 482 7 365 7 212 9 29 11 823 18
525 7 479 7 355 7 106 9 927 13
525 7 479 7 355 7 106 9 927 13
525 7 479 7 355 7 106 9 927 13
525 7 479 7 355 7 106 9 927 13
525 7 477 7 390 7 241 9 75 11 912 15 777 22
521 7 473 7 324 11
